20190702 78400.00 72900.00
20180611 81400.00 71100.00
20171010 45228.49 39631.11
20170602 45228.49 39092.52
20161231 40812.09 33092.52
20161129 40812.09 33092.52
20160527 40812.09 32553.93
20151231 34812.09 32553.93
20150924 34812.09 32553.93
